c description: Subset cardinality formula for fast_gnp_random_graph(4,10,0.8)
c generator: CNFgen (0.9.0)
c copyright: (C) 2012-2020 Massimo Lauria <massimo.lauria@uniroma1.it>
c url: https://massimolauria.net/cnfgen
c
p cnf 33 388
1 2 3 4 0
1 2 3 5 0
1 2 3 6 0
1 2 3 7 0
1 2 4 5 0
1 2 4 6 0
1 2 4 7 0
1 2 5 6 0
1 2 5 7 0
1 2 6 7 0
1 3 4 5 0
1 3 4 6 0
1 3 4 7 0
1 3 5 6 0
1 3 5 7 0
1 3 6 7 0
1 4 5 6 0
1 4 5 7 0
1 4 6 7 0
1 5 6 7 0
2 3 4 5 0
2 3 4 6 0
2 3 4 7 0
2 3 5 6 0
2 3 5 7 0
2 3 6 7 0
2 4 5 6 0
2 4 5 7 0
2 4 6 7 0
2 5 6 7 0
3 4 5 6 0
3 4 5 7 0
3 4 6 7 0
3 5 6 7 0
4 5 6 7 0
8 9 10 11 12 0
8 9 10 11 13 0
8 9 10 11 14 0
8 9 10 11 15 0
8 9 10 12 13 0
8 9 10 12 14 0
8 9 10 12 15 0
8 9 10 13 14 0
8 9 10 13 15 0
8 9 10 14 15 0
8 9 11 12 13 0
8 9 11 12 14 0
8 9 11 12 15 0
8 9 11 13 14 0
8 9 11 13 15 0
8 9 11 14 15 0
8 9 12 13 14 0
8 9 12 13 15 0
8 9 12 14 15 0
8 9 13 14 15 0
8 10 11 12 13 0
8 10 11 12 14 0
8 10 11 12 15 0
8 10 11 13 14 0
8 10 11 13 15 0
8 10 11 14 15 0
8 10 12 13 14 0
8 10 12 13 15 0
8 10 12 14 15 0
8 10 13 14 15 0
8 11 12 13 14 0
8 11 12 13 15 0
8 11 12 14 15 0
8 11 13 14 15 0
8 12 13 14 15 0
9 10 11 12 13 0
9 10 11 12 14 0
9 10 11 12 15 0
9 10 11 13 14 0
9 10 11 13 15 0
9 10 11 14 15 0
9 10 12 13 14 0
9 10 12 13 15 0
9 10 12 14 15 0
9 10 13 14 15 0
9 11 12 13 14 0
9 11 12 13 15 0
9 11 12 14 15 0
9 11 13 14 15 0
9 12 13 14 15 0
10 11 12 13 14 0
10 11 12 13 15 0
10 11 12 14 15 0
10 11 13 14 15 0
10 12 13 14 15 0
11 12 13 14 15 0
16 17 18 19 20 21 0
16 17 18 19 20 22 0
16 17 18 19 20 23 0
16 17 18 19 20 24 0
16 17 18 19 20 25 0
16 17 18 19 21 22 0
16 17 18 19 21 23 0
16 17 18 19 21 24 0
16 17 18 19 21 25 0
16 17 18 19 22 23 0
16 17 18 19 22 24 0
16 17 18 19 22 25 0
16 17 18 19 23 24 0
16 17 18 19 23 25 0
16 17 18 19 24 25 0
16 17 18 20 21 22 0
16 17 18 20 21 23 0
16 17 18 20 21 24 0
16 17 18 20 21 25 0
16 17 18 20 22 23 0
16 17 18 20 22 24 0
16 17 18 20 22 25 0
16 17 18 20 23 24 0
16 17 18 20 23 25 0
16 17 18 20 24 25 0
16 17 18 21 22 23 0
16 17 18 21 22 24 0
16 17 18 21 22 25 0
16 17 18 21 23 24 0
16 17 18 21 23 25 0
16 17 18 21 24 25 0
16 17 18 22 23 24 0
16 17 18 22 23 25 0
16 17 18 22 24 25 0
16 17 18 23 24 25 0
16 17 19 20 21 22 0
16 17 19 20 21 23 0
16 17 19 20 21 24 0
16 17 19 20 21 25 0
16 17 19 20 22 23 0
16 17 19 20 22 24 0
16 17 19 20 22 25 0
16 17 19 20 23 24 0
16 17 19 20 23 25 0
16 17 19 20 24 25 0
16 17 19 21 22 23 0
16 17 19 21 22 24 0
16 17 19 21 22 25 0
16 17 19 21 23 24 0
16 17 19 21 23 25 0
16 17 19 21 24 25 0
16 17 19 22 23 24 0
16 17 19 22 23 25 0
16 17 19 22 24 25 0
16 17 19 23 24 25 0
16 17 20 21 22 23 0
16 17 20 21 22 24 0
16 17 20 21 22 25 0
16 17 20 21 23 24 0
16 17 20 21 23 25 0
16 17 20 21 24 25 0
16 17 20 22 23 24 0
16 17 20 22 23 25 0
16 17 20 22 24 25 0
16 17 20 23 24 25 0
16 17 21 22 23 24 0
16 17 21 22 23 25 0
16 17 21 22 24 25 0
16 17 21 23 24 25 0
16 17 22 23 24 25 0
16 18 19 20 21 22 0
16 18 19 20 21 23 0
16 18 19 20 21 24 0
16 18 19 20 21 25 0
16 18 19 20 22 23 0
16 18 19 20 22 24 0
16 18 19 20 22 25 0
16 18 19 20 23 24 0
16 18 19 20 23 25 0
16 18 19 20 24 25 0
16 18 19 21 22 23 0
16 18 19 21 22 24 0
16 18 19 21 22 25 0
16 18 19 21 23 24 0
16 18 19 21 23 25 0
16 18 19 21 24 25 0
16 18 19 22 23 24 0
16 18 19 22 23 25 0
16 18 19 22 24 25 0
16 18 19 23 24 25 0
16 18 20 21 22 23 0
16 18 20 21 22 24 0
16 18 20 21 22 25 0
16 18 20 21 23 24 0
16 18 20 21 23 25 0
16 18 20 21 24 25 0
16 18 20 22 23 24 0
16 18 20 22 23 25 0
16 18 20 22 24 25 0
16 18 20 23 24 25 0
16 18 21 22 23 24 0
16 18 21 22 23 25 0
16 18 21 22 24 25 0
16 18 21 23 24 25 0
16 18 22 23 24 25 0
16 19 20 21 22 23 0
16 19 20 21 22 24 0
16 19 20 21 22 25 0
16 19 20 21 23 24 0
16 19 20 21 23 25 0
16 19 20 21 24 25 0
16 19 20 22 23 24 0
16 19 20 22 23 25 0
16 19 20 22 24 25 0
16 19 20 23 24 25 0
16 19 21 22 23 24 0
16 19 21 22 23 25 0
16 19 21 22 24 25 0
16 19 21 23 24 25 0
16 19 22 23 24 25 0
16 20 21 22 23 24 0
16 20 21 22 23 25 0
16 20 21 22 24 25 0
16 20 21 23 24 25 0
16 20 22 23 24 25 0
16 21 22 23 24 25 0
17 18 19 20 21 22 0
17 18 19 20 21 23 0
17 18 19 20 21 24 0
17 18 19 20 21 25 0
17 18 19 20 22 23 0
17 18 19 20 22 24 0
17 18 19 20 22 25 0
17 18 19 20 23 24 0
17 18 19 20 23 25 0
17 18 19 20 24 25 0
17 18 19 21 22 23 0
17 18 19 21 22 24 0
17 18 19 21 22 25 0
17 18 19 21 23 24 0
17 18 19 21 23 25 0
17 18 19 21 24 25 0
17 18 19 22 23 24 0
17 18 19 22 23 25 0
17 18 19 22 24 25 0
17 18 19 23 24 25 0
17 18 20 21 22 23 0
17 18 20 21 22 24 0
17 18 20 21 22 25 0
17 18 20 21 23 24 0
17 18 20 21 23 25 0
17 18 20 21 24 25 0
17 18 20 22 23 24 0
17 18 20 22 23 25 0
17 18 20 22 24 25 0
17 18 20 23 24 25 0
17 18 21 22 23 24 0
17 18 21 22 23 25 0
17 18 21 22 24 25 0
17 18 21 23 24 25 0
17 18 22 23 24 25 0
17 19 20 21 22 23 0
17 19 20 21 22 24 0
17 19 20 21 22 25 0
17 19 20 21 23 24 0
17 19 20 21 23 25 0
17 19 20 21 24 25 0
17 19 20 22 23 24 0
17 19 20 22 23 25 0
17 19 20 22 24 25 0
17 19 20 23 24 25 0
17 19 21 22 23 24 0
17 19 21 22 23 25 0
17 19 21 22 24 25 0
17 19 21 23 24 25 0
17 19 22 23 24 25 0
17 20 21 22 23 24 0
17 20 21 22 23 25 0
17 20 21 22 24 25 0
17 20 21 23 24 25 0
17 20 22 23 24 25 0
17 21 22 23 24 25 0
18 19 20 21 22 23 0
18 19 20 21 22 24 0
18 19 20 21 22 25 0
18 19 20 21 23 24 0
18 19 20 21 23 25 0
18 19 20 21 24 25 0
18 19 20 22 23 24 0
18 19 20 22 23 25 0
18 19 20 22 24 25 0
18 19 20 23 24 25 0
18 19 21 22 23 24 0
18 19 21 22 23 25 0
18 19 21 22 24 25 0
18 19 21 23 24 25 0
18 19 22 23 24 25 0
18 20 21 22 23 24 0
18 20 21 22 23 25 0
18 20 21 22 24 25 0
18 20 21 23 24 25 0
18 20 22 23 24 25 0
18 21 22 23 24 25 0
19 20 21 22 23 24 0
19 20 21 22 23 25 0
19 20 21 22 24 25 0
19 20 21 23 24 25 0
19 20 22 23 24 25 0
19 21 22 23 24 25 0
20 21 22 23 24 25 0
26 27 28 29 30 0
26 27 28 29 31 0
26 27 28 29 32 0
26 27 28 29 33 0
26 27 28 30 31 0
26 27 28 30 32 0
26 27 28 30 33 0
26 27 28 31 32 0
26 27 28 31 33 0
26 27 28 32 33 0
26 27 29 30 31 0
26 27 29 30 32 0
26 27 29 30 33 0
26 27 29 31 32 0
26 27 29 31 33 0
26 27 29 32 33 0
26 27 30 31 32 0
26 27 30 31 33 0
26 27 30 32 33 0
26 27 31 32 33 0
26 28 29 30 31 0
26 28 29 30 32 0
26 28 29 30 33 0
26 28 29 31 32 0
26 28 29 31 33 0
26 28 29 32 33 0
26 28 30 31 32 0
26 28 30 31 33 0
26 28 30 32 33 0
26 28 31 32 33 0
26 29 30 31 32 0
26 29 30 31 33 0
26 29 30 32 33 0
26 29 31 32 33 0
26 30 31 32 33 0
27 28 29 30 31 0
27 28 29 30 32 0
27 28 29 30 33 0
27 28 29 31 32 0
27 28 29 31 33 0
27 28 29 32 33 0
27 28 30 31 32 0
27 28 30 31 33 0
27 28 30 32 33 0
27 28 31 32 33 0
27 29 30 31 32 0
27 29 30 31 33 0
27 29 30 32 33 0
27 29 31 32 33 0
27 30 31 32 33 0
28 29 30 31 32 0
28 29 30 31 33 0
28 29 30 32 33 0
28 29 31 32 33 0
28 30 31 32 33 0
29 30 31 32 33 0
-1 -8 -16 0
-1 -8 -26 0
-1 -16 -26 0
-8 -16 -26 0
-2 -17 0
-18 -27 0
-3 -9 -19 0
-3 -9 -28 0
-3 -19 -28 0
-9 -19 -28 0
-10 -20 0
-10 -29 0
-20 -29 0
-4 -11 -21 0
-4 -11 -30 0
-4 -21 -30 0
-11 -21 -30 0
-12 -22 0
-12 -31 0
-22 -31 0
-5 -13 -23 0
-5 -13 -32 0
-5 -23 -32 0
-13 -23 -32 0
-6 -14 0
-6 -24 0
-14 -24 0
-7 -15 -25 0
-7 -15 -33 0
-7 -25 -33 0
-15 -25 -33 0